rc101_2
0 95 70 71 88 69 89 90 68 56 81 94 23 53 3 24 25 54 27 29 26 28 30 82 63 80 64 102 2 17 19 16 18 20 21 22 52 15 14 92 79 91 62 3 57 104 87 58 93 65 83 78 84 12 13 9 1 10 8 50 51 11 7 6 75 60 105 73 86 101 0 74 103 85 99 97 100 96 61 67 55 39 37 4 36 34 32 31 33 35 38 72 98 76 77 46 49 5 47 44 43 45 42 41 40 48 66 59 0